
Log started (V11.0.0) Sun Apr 20 16:02:24 2008

Tried aggregator 1 time.
Reduced MIP has 240 rows, 8001 columns, and 16040 nonzeros.
Presolve time =    0.06 sec.
Clique table members: 200.
MIP emphasis: balance optimality and feasibility.
MIP search method: dynamic search.
Parallel mode: none, using 1 thread.
Root relaxation solution time =    0.34 sec.

        Nodes                                         Cuts/
   Node  Left     Objective  IInf  Best Integer     Best Node    ItCnt     Gap

*     0+    0                        29609.0000      512.3720      566   98.27%
*     0+    0                          526.0000      512.3720      566    2.59%
      0     0      513.0000    75      526.0000      Fract: 6      598    2.47%
      0     0      513.0000    75      526.0000     Covers: 1      630    2.47%
      0     0      513.0000    76      526.0000     Covers: 4      639    2.47%
      0     2      513.0000    76      526.0000      513.0000      639    2.47%
*    20+   20                          525.0000      513.0000     1196    2.29%
    100   100      516.0000    67      525.0000      513.0000     3775    2.29%
    200   191      517.0000    58      525.0000      513.0000     8401    2.29%
    300   280      519.0000    60      525.0000      513.0000    15085    2.29%
    400   359      521.0000    62      525.0000      513.0000    19499    2.29%
*   478+  272                          520.0000      513.4130    24529    1.27%
*   478+  181                          517.0000      513.4130    24529    0.69%
    500   187      514.0000    70      517.0000      514.0000    24859    0.58%
    600   201      514.0000    81      517.0000      514.0000    28079    0.58%
    700   215      515.0000    67      517.0000      514.0000    33594    0.58%
    800   259      514.0000   105      517.0000      514.0000    43052    0.58%
    900   339      516.0000    88      517.0000      514.0000    52752    0.58%
   1000   389      515.0000    87      517.0000      514.0000    70812    0.58%
Elapsed time =  55.99 sec. (tree size =  2.44 MB, solutions = 5)
   1100   474      515.0000    75      517.0000      514.0000    83898    0.58%
   1200   551      516.0000    81      517.0000      514.0000    99265    0.58%
   1300   565    infeasible            517.0000      514.0000   169469    0.58%
   1400   573    infeasible            517.0000      514.0000   238290    0.58%
   1500   632      516.0000   140      517.0000      514.0000   262077    0.58%
   1600   655      515.0000   124      517.0000      514.0000   294402    0.58%
   1700   742      516.0000    82      517.0000      514.0000   306400    0.58%
   1800   810      515.0000   102      517.0000      514.0000   323282    0.58%
   1900   894      514.5524   178      517.0000      514.0000   336610    0.58%
   2000   987    infeasible            517.0000      514.0000   345724    0.58%
Elapsed time = 166.59 sec. (tree size =  7.62 MB, solutions = 5)
   2100   976        cutoff            517.0000      514.0000   404804    0.58%
   2200   876        cutoff            517.0000      515.0000   513460    0.39%
   2300   776        cutoff            517.0000      515.0000   606406    0.39%
   2400   676        cutoff            517.0000      515.0000   714764    0.39%
   2500   576        cutoff            517.0000      515.0000   807965    0.39%
   2600   476        cutoff            517.0000      515.0000   915504    0.39%
   2700   376        cutoff            517.0000      516.0000  1204251    0.19%
   2800   276    infeasible            517.0000      516.0000  1543045    0.19%
   2900   176    infeasible            517.0000      516.0000  1882275    0.19%
   3000    76    infeasible            517.0000      516.0000  2159215    0.19%
Elapsed time = 744.14 sec. (tree size =  0.66 MB, solutions = 5)

Cover cuts applied:  317
Mixed integer rounding cuts applied:  34
Gomory fractional cuts applied:  16

Solution pool: 5 solutions saved.

MIP - Integer optimal solution:  Objective = 5.1700000000e+002
Solution time =  863.59 sec.  Iterations = 2445563  Nodes = 3077


Incumbent solution
Variable Name           Solution Value
Cmax                        517.000000
X_1_37                        1.000000
X_2_18                        1.000000
X_3_31                        1.000000
X_4_39                        1.000000
X_5_21                        1.000000
X_6_5                         1.000000
X_7_40                        1.000000
X_8_32                        1.000000
X_9_14                        1.000000
X_10_3                        1.000000
X_11_29                       1.000000
X_12_36                       1.000000
X_13_30                       1.000000
X_14_35                       1.000000
X_15_2                        1.000000
X_16_31                       1.000000
X_17_12                       1.000000
X_18_28                       1.000000
X_19_13                       1.000000
X_20_10                       1.000000
X_21_8                        1.000000
X_22_33                       1.000000
X_23_17                       1.000000
X_24_19                       1.000000
X_25_14                       1.000000
X_26_38                       1.000000
X_27_15                       1.000000
X_28_15                       1.000000
X_29_4                        1.000000
X_30_26                       1.000000
X_31_15                       1.000000
X_32_22                       1.000000
X_33_21                       1.000000
X_34_37                       1.000000
X_35_20                       1.000000
X_36_17                       1.000000
X_37_11                       1.000000
X_38_20                       1.000000
X_39_40                       1.000000
X_40_13                       1.000000
X_41_34                       1.000000
X_42_26                       1.000000
X_43_32                       1.000000
X_44_10                       1.000000
X_45_34                       1.000000
X_46_4                        1.000000
X_47_20                       1.000000
X_48_38                       1.000000
X_49_1                        1.000000
X_50_13                       1.000000
X_51_36                       1.000000
X_52_30                       1.000000
X_53_11                       1.000000
X_54_12                       1.000000
X_55_12                       1.000000
X_56_9                        1.000000
X_57_6                        1.000000
X_58_16                       1.000000
X_59_27                       1.000000
X_60_14                       1.000000
X_61_11                       1.000000
X_62_24                       1.000000
X_63_17                       1.000000
X_64_16                       1.000000
X_65_37                       1.000000
X_66_29                       1.000000
X_67_19                       1.000000
X_68_27                       1.000000
X_69_35                       1.000000
X_70_2                        1.000000
X_71_28                       1.000000
X_72_16                       1.000000
X_73_20                       1.000000
X_74_22                       1.000000
X_75_29                       1.000000
X_76_21                       1.000000
X_77_30                       1.000000
X_78_35                       1.000000
X_79_34                       1.000000
X_80_9                        1.000000
X_81_31                       1.000000
X_82_7                        1.000000
X_83_39                       1.000000
X_84_34                       1.000000
X_85_5                        1.000000
X_86_39                       1.000000
X_87_23                       1.000000
X_88_35                       1.000000
X_89_33                       1.000000
X_90_33                       1.000000
X_91_3                        1.000000
X_92_19                       1.000000
X_93_15                       1.000000
X_94_8                        1.000000
X_95_17                       1.000000
X_96_7                        1.000000
X_97_11                       1.000000
X_98_40                       1.000000
X_99_31                       1.000000
X_100_3                       1.000000
X_101_40                      1.000000
X_102_18                      1.000000
X_103_28                      1.000000
X_104_14                      1.000000
X_105_18                      1.000000
X_106_16                      1.000000
X_107_8                       1.000000
X_108_25                      1.000000
X_109_22                      1.000000
X_110_38                      1.000000
X_111_30                      1.000000
X_112_5                       1.000000
X_113_2                       1.000000
X_114_23                      1.000000
X_115_24                      1.000000
X_116_6                       1.000000
X_117_8                       1.000000
X_118_32                      1.000000
X_119_9                       1.000000
X_120_29                      1.000000
X_121_14                      1.000000
X_122_10                      1.000000
X_123_16                      1.000000
X_124_32                      1.000000
X_125_24                      1.000000
X_126_6                       1.000000
X_127_23                      1.000000
X_128_24                      1.000000
X_129_10                      1.000000
X_130_9                       1.000000
X_131_1                       1.000000
X_132_40                      1.000000
X_133_7                       1.000000
X_134_5                       1.000000
X_135_15                      1.000000
X_136_19                      1.000000
X_137_7                       1.000000
X_138_17                      1.000000
X_139_4                       1.000000
X_140_27                      1.000000
X_141_31                      1.000000
X_142_1                       1.000000
X_143_29                      1.000000
X_144_2                       1.000000
X_145_33                      1.000000
X_146_23                      1.000000
X_147_33                      1.000000
X_148_4                       1.000000
X_149_18                      1.000000
X_150_10                      1.000000
X_151_36                      1.000000
X_152_13                      1.000000
X_153_22                      1.000000
X_154_38                      1.000000
X_155_35                      1.000000
X_156_18                      1.000000
X_157_26                      1.000000
X_158_34                      1.000000
X_159_36                      1.000000
X_160_37                      1.000000
X_161_7                       1.000000
X_162_39                      1.000000
X_163_30                      1.000000
X_164_25                      1.000000
X_165_8                       1.000000
X_166_5                       1.000000
X_167_1                       1.000000
X_168_20                      1.000000
X_169_12                      1.000000
X_170_6                       1.000000
X_171_26                      1.000000
X_172_38                      1.000000
X_173_11                      1.000000
X_174_21                      1.000000
X_175_25                      1.000000
X_176_22                      1.000000
X_177_25                      1.000000
X_178_19                      1.000000
X_179_36                      1.000000
X_180_3                       1.000000
X_181_28                      1.000000
X_182_25                      1.000000
X_183_28                      1.000000
X_184_27                      1.000000
X_185_13                      1.000000
X_186_9                       1.000000
X_187_23                      1.000000
X_188_37                      1.000000
X_189_27                      1.000000
X_190_3                       1.000000
X_191_1                       1.000000
X_192_21                      1.000000
X_193_24                      1.000000
X_194_26                      1.000000
X_195_4                       1.000000
X_196_6                       1.000000
X_197_12                      1.000000
X_198_39                      1.000000
X_199_32                      1.000000
X_200_2                       1.000000
All other variables in the range 1-8001 are 0.
